(set-logic QF_LRA)
(declare-fun fluent_treated_plt0_t0@1 () Bool)
(declare-fun fluent_treated_plt0_t1@1 () Bool)
(declare-fun fluent_robot_at_r0_p0@0 () Bool)
(declare-fun fluent_robot_at_r0_p1@0 () Bool)
(declare-fun fluent_position_free_p0@1 () Bool)
(declare-fun fluent_robot_free_r0@0 () Bool)
(declare-fun fluent_position_free_p1@1 () Bool)
(declare-fun fluent_pallet_at_plt0_p0@0 () Bool)
(declare-fun fluent_pallet_at_plt0_p1@0 () Bool)
(declare-fun fluent_battery_level_r0@0 () Real)
(declare-fun act_load_at_depot@1 () Bool)
(declare-fun parameter_load_at_depot_pos@1 () Real)
(declare-fun parameter_load_at_depot_r@1 () Real)
(declare-fun fluent_position_free_p0@0 () Bool)
(declare-fun fluent_position_free_p1@0 () Bool)
(declare-fun parameter_load_at_depot_pallet@1 () Real)
(declare-fun fluent_robot_has_r0_plt0@0 () Bool)
(declare-fun fluent_ready_plt0_p0_t0@0 () Bool)
(declare-fun fluent_ready_plt0_p1_t0@0 () Bool)
(declare-fun fluent_ready_plt0_p0_t1@0 () Bool)
(declare-fun fluent_ready_plt0_p1_t1@0 () Bool)
(declare-fun act_unload_at_depot@1 () Bool)
(declare-fun parameter_unload_at_depot_pos@1 () Real)
(declare-fun parameter_unload_at_depot_r@1 () Real)
(declare-fun fluent_treated_plt0_t0@0 () Bool)
(declare-fun fluent_treated_plt0_t1@0 () Bool)
(declare-fun parameter_unload_at_depot_pallet@1 () Real)
(declare-fun act_move@1 () Bool)
(declare-fun parameter_move_topos@1 () Real)
(declare-fun parameter_move_frompos@1 () Real)
(declare-fun dur_make_treatment@1 () Real)
(declare-fun parameter_move_r@1 () Real)
(declare-fun t@1 () Real)
(declare-fun parameter_make_treatment_t@1 () Real)
(declare-fun fluent_robot_at_r0_p0@1 () Bool)
(declare-fun fluent_robot_at_r0_p1@1 () Bool)
(declare-fun parameter_make_treatment_pallet@1 () Real)
(declare-fun parameter_make_treatment_r@1 () Real)
(declare-fun fluent_battery_level_r0@1 () Real)
(declare-fun parameter_make_treatment_pos@1 () Real)
(declare-fun act_load@1 () Bool)
(declare-fun parameter_load_t@1 () Real)
(declare-fun parameter_load_pos@1 () Real)
(declare-fun parameter_load_pallet@1 () Real)
(declare-fun parameter_load_r@1 () Real)
(declare-fun fluent_robot_free_r0@1 () Bool)
(declare-fun fluent_ready_plt0_p0_t0@1 () Bool)
(declare-fun fluent_ready_plt0_p1_t0@1 () Bool)
(declare-fun fluent_ready_plt0_p0_t1@1 () Bool)
(declare-fun fluent_ready_plt0_p1_t1@1 () Bool)
(declare-fun act_make_treatment@1 () Bool)
(declare-fun fluent_pallet_at_plt0_p0@1 () Bool)
(declare-fun fluent_pallet_at_plt0_p1@1 () Bool)
(declare-fun fluent_robot_has_r0_plt0@1 () Bool)
(assert (let ((.def_0 (= parameter_load_r@1 0.0))) (let ((.def_1 (= parameter_load_pallet@1 3.0))) (let ((.def_2 (= parameter_load_pos@1 2.0))) (let ((.def_3 (= parameter_load_pos@1 1.0))) (let ((.def_4 (or .def_3 .def_2))) (let ((.def_5 (= parameter_load_t@1 5.0))) (let ((.def_6 (= parameter_load_t@1 4.0))) (let ((.def_7 (or .def_6 .def_5))) (let ((.def_8 (= parameter_make_treatment_pos@1 2.0))) (let ((.def_9 (= parameter_make_treatment_pos@1 1.0))) (let ((.def_10 (or .def_9 .def_8))) (let ((.def_11 (<= fluent_battery_level_r0@1 100.0))) (let ((.def_12 (<= 0.0 fluent_battery_level_r0@1))) (let ((.def_13 (= parameter_make_treatment_r@1 0.0))) (let ((.def_14 (= parameter_make_treatment_pallet@1 3.0))) (let ((.def_15 (= parameter_make_treatment_t@1 5.0))) (let ((.def_16 (= parameter_make_treatment_t@1 4.0))) (let ((.def_17 (or .def_16 .def_15))) (let ((.def_18 (= parameter_move_r@1 0.0))) (let ((.def_19 (= parameter_move_frompos@1 2.0))) (let ((.def_20 (= parameter_move_frompos@1 1.0))) (let ((.def_21 (or .def_20 .def_19))) (let ((.def_22 (= parameter_move_topos@1 2.0))) (let ((.def_23 (= parameter_move_topos@1 1.0))) (let ((.def_24 (or .def_23 .def_22))) (let ((.def_25 (= parameter_unload_at_depot_pallet@1 3.0))) (let ((.def_26 (= parameter_unload_at_depot_r@1 0.0))) (let ((.def_27 (= parameter_unload_at_depot_pos@1 2.0))) (let ((.def_28 (= parameter_unload_at_depot_pos@1 1.0))) (let ((.def_29 (or .def_28 .def_27))) (let ((.def_30 (= parameter_load_at_depot_pallet@1 3.0))) (let ((.def_31 (= parameter_load_at_depot_r@1 0.0))) (let ((.def_32 (= parameter_load_at_depot_pos@1 2.0))) (let ((.def_33 (= parameter_load_at_depot_pos@1 1.0))) (let ((.def_34 (or .def_33 .def_32))) (let ((.def_35 (and act_move@1 true .def_18))) (let ((.def_36 (= fluent_battery_level_r0@0 fluent_battery_level_r0@1))) (let ((.def_37 (not .def_36))) (let ((.def_38 (=> .def_37 .def_35))) (let ((.def_39 (and act_make_treatment@1 true .def_14 .def_8))) (let ((.def_40 (and act_unload_at_depot@1 true .def_25 .def_27))) (let ((.def_41 (and .def_40 .def_39))) (let ((.def_42 (not .def_41))) (let ((.def_43 (and act_load_at_depot@1 true .def_30 .def_32))) (let ((.def_44 (and .def_43 .def_39))) (let ((.def_45 (not .def_44))) (let ((.def_46 (and .def_43 .def_40))) (let ((.def_47 (not .def_46))) (let ((.def_48 (and act_load@1 true .def_1 .def_2))) (let ((.def_49 (and .def_48 .def_39))) (let ((.def_50 (not .def_49))) (let ((.def_51 (and .def_48 .def_40))) (let ((.def_52 (not .def_51))) (let ((.def_53 (and .def_48 .def_43))) (let ((.def_54 (not .def_53))) (let ((.def_55 (or .def_48 .def_43 .def_40 .def_39))) (let ((.def_56 (= fluent_pallet_at_plt0_p1@0 fluent_pallet_at_plt0_p1@1))) (let ((.def_57 (not .def_56))) (let ((.def_58 (=> .def_57 .def_55))) (let ((.def_59 (and act_make_treatment@1 true .def_14 .def_9))) (let ((.def_60 (and act_unload_at_depot@1 true .def_25 .def_28))) (let ((.def_61 (and .def_60 .def_59))) (let ((.def_62 (not .def_61))) (let ((.def_63 (and act_load_at_depot@1 true .def_30 .def_33))) (let ((.def_64 (and .def_63 .def_59))) (let ((.def_65 (not .def_64))) (let ((.def_66 (and .def_63 .def_60))) (let ((.def_67 (not .def_66))) (let ((.def_68 (and act_load@1 true .def_1 .def_3))) (let ((.def_69 (and .def_68 .def_59))) (let ((.def_70 (not .def_69))) (let ((.def_71 (and .def_68 .def_60))) (let ((.def_72 (not .def_71))) (let ((.def_73 (and .def_68 .def_63))) (let ((.def_74 (not .def_73))) (let ((.def_75 (or .def_68 .def_63 .def_60 .def_59))) (let ((.def_76 (= fluent_pallet_at_plt0_p0@0 fluent_pallet_at_plt0_p0@1))) (let ((.def_77 (not .def_76))) (let ((.def_78 (=> .def_77 .def_75))) (let ((.def_79 (and act_load@1 true .def_1 .def_5))) (let ((.def_80 (= fluent_treated_plt0_t1@0 fluent_treated_plt0_t1@1))) (let ((.def_81 (not .def_80))) (let ((.def_82 (=> .def_81 .def_79))) (let ((.def_83 (and act_load@1 true .def_1 .def_6))) (let ((.def_84 (= fluent_treated_plt0_t0@0 fluent_treated_plt0_t0@1))) (let ((.def_85 (not .def_84))) (let ((.def_86 (=> .def_85 .def_83))) (let ((.def_87 (and act_make_treatment@1 true .def_8))) (let ((.def_88 (and act_load@1 true .def_2))) (let ((.def_89 (and .def_88 .def_87))) (let ((.def_90 (not .def_89))) (let ((.def_91 (or .def_88 .def_87))) (let ((.def_92 (= fluent_position_free_p1@0 fluent_position_free_p1@1))) (let ((.def_93 (not .def_92))) (let ((.def_94 (=> .def_93 .def_91))) (let ((.def_95 (and act_make_treatment@1 true .def_9))) (let ((.def_96 (and act_load@1 true .def_3))) (let ((.def_97 (and .def_96 .def_95))) (let ((.def_98 (not .def_97))) (let ((.def_99 (or .def_96 .def_95))) (let ((.def_100 (= fluent_position_free_p0@0 fluent_position_free_p0@1))) (let ((.def_101 (not .def_100))) (let ((.def_102 (=> .def_101 .def_99))) (let ((.def_103 (+ t@1 10.0))) (let ((.def_104 (= t@1 .def_103))) (let ((.def_105 (and act_make_treatment@1 true .def_104 .def_14 .def_8 .def_15))) (let ((.def_106 (and act_load@1 true .def_1 .def_2 .def_5))) (let ((.def_107 (and .def_106 .def_105))) (let ((.def_108 (not .def_107))) (let ((.def_109 (or .def_106 .def_105))) (let ((.def_110 (= fluent_ready_plt0_p1_t1@0 fluent_ready_plt0_p1_t1@1))) (let ((.def_111 (not .def_110))) (let ((.def_112 (=> .def_111 .def_109))) (let ((.def_113 (and act_make_treatment@1 true .def_104 .def_14 .def_9 .def_15))) (let ((.def_114 (and act_load@1 true .def_1 .def_3 .def_5))) (let ((.def_115 (and .def_114 .def_113))) (let ((.def_116 (not .def_115))) (let ((.def_117 (or .def_114 .def_113))) (let ((.def_118 (= fluent_ready_plt0_p0_t1@0 fluent_ready_plt0_p0_t1@1))) (let ((.def_119 (not .def_118))) (let ((.def_120 (=> .def_119 .def_117))) (let ((.def_121 (and act_make_treatment@1 true .def_104 .def_14 .def_8 .def_16))) (let ((.def_122 (and act_load@1 true .def_1 .def_2 .def_6))) (let ((.def_123 (and .def_122 .def_121))) (let ((.def_124 (not .def_123))) (let ((.def_125 (or .def_122 .def_121))) (let ((.def_126 (= fluent_ready_plt0_p1_t0@0 fluent_ready_plt0_p1_t0@1))) (let ((.def_127 (not .def_126))) (let ((.def_128 (=> .def_127 .def_125))) (let ((.def_129 (and act_make_treatment@1 true .def_104 .def_14 .def_9 .def_16))) (let ((.def_130 (and act_load@1 true .def_1 .def_3 .def_6))) (let ((.def_131 (and .def_130 .def_129))) (let ((.def_132 (not .def_131))) (let ((.def_133 (or .def_130 .def_129))) (let ((.def_134 (= fluent_ready_plt0_p0_t0@0 fluent_ready_plt0_p0_t0@1))) (let ((.def_135 (not .def_134))) (let ((.def_136 (=> .def_135 .def_133))) (let ((.def_137 (and act_make_treatment@1 true .def_13 .def_14))) (let ((.def_138 (and act_unload_at_depot@1 true .def_26 .def_25))) (let ((.def_139 (and .def_138 .def_137))) (let ((.def_140 (not .def_139))) (let ((.def_141 (and act_load_at_depot@1 true .def_31 .def_30))) (let ((.def_142 (and .def_141 .def_137))) (let ((.def_143 (not .def_142))) (let ((.def_144 (and .def_141 .def_138))) (let ((.def_145 (not .def_144))) (let ((.def_146 (and act_load@1 true .def_0 .def_1))) (let ((.def_147 (and .def_146 .def_137))) (let ((.def_148 (not .def_147))) (let ((.def_149 (and .def_146 .def_138))) (let ((.def_150 (not .def_149))) (let ((.def_151 (and .def_146 .def_141))) (let ((.def_152 (not .def_151))) (let ((.def_153 (or .def_146 .def_141 .def_138 .def_137))) (let ((.def_154 (= fluent_robot_has_r0_plt0@0 fluent_robot_has_r0_plt0@1))) (let ((.def_155 (not .def_154))) (let ((.def_156 (=> .def_155 .def_153))) (let ((.def_157 (and act_make_treatment@1 true .def_13))) (let ((.def_158 (and act_unload_at_depot@1 true .def_26))) (let ((.def_159 (and .def_158 .def_157))) (let ((.def_160 (not .def_159))) (let ((.def_161 (and act_load_at_depot@1 true .def_31))) (let ((.def_162 (and .def_161 .def_157))) (let ((.def_163 (not .def_162))) (let ((.def_164 (and .def_161 .def_158))) (let ((.def_165 (not .def_164))) (let ((.def_166 (and act_load@1 true .def_0))) (let ((.def_167 (and .def_166 .def_157))) (let ((.def_168 (not .def_167))) (let ((.def_169 (and .def_166 .def_158))) (let ((.def_170 (not .def_169))) (let ((.def_171 (and .def_166 .def_161))) (let ((.def_172 (not .def_171))) (let ((.def_173 (or .def_166 .def_161 .def_158 .def_157))) (let ((.def_174 (= fluent_robot_free_r0@0 fluent_robot_free_r0@1))) (let ((.def_175 (not .def_174))) (let ((.def_176 (=> .def_175 .def_173))) (let ((.def_177 (and act_move@1 true .def_18 .def_19))) (let ((.def_178 (and act_move@1 true .def_18 .def_22))) (let ((.def_179 (and .def_178 .def_177))) (let ((.def_180 (not .def_179))) (let ((.def_181 (or .def_178 .def_177))) (let ((.def_182 (= fluent_robot_at_r0_p1@0 fluent_robot_at_r0_p1@1))) (let ((.def_183 (not .def_182))) (let ((.def_184 (=> .def_183 .def_181))) (let ((.def_185 (and act_move@1 true .def_18 .def_20))) (let ((.def_186 (and act_move@1 true .def_18 .def_23))) (let ((.def_187 (and .def_186 .def_185))) (let ((.def_188 (not .def_187))) (let ((.def_189 (or .def_186 .def_185))) (let ((.def_190 (= fluent_robot_at_r0_p0@0 fluent_robot_at_r0_p0@1))) (let ((.def_191 (not .def_190))) (let ((.def_192 (=> .def_191 .def_189))) (let ((.def_193 (and .def_192 .def_188 .def_184 .def_180 .def_176 .def_172 .def_170 .def_168 .def_165 .def_163 .def_160 .def_156 .def_152 .def_150 .def_148 .def_145 .def_143 .def_140 .def_136 .def_132 .def_128 .def_124 .def_120 .def_116 .def_112 .def_108 .def_102 .def_98 .def_94 .def_90 .def_86 .def_82 .def_78 .def_74 .def_72 .def_70 .def_67 .def_65 .def_62 .def_58 .def_54 .def_52 .def_50 .def_47 .def_45 .def_42 .def_38))) (let ((.def_194 (= t@1 t@1))) (let ((.def_195 (and act_unload_at_depot@1 act_load@1 .def_194))) (let ((.def_196 (not .def_195))) (let ((.def_197 (and act_load_at_depot@1 act_move@1 .def_194))) (let ((.def_198 (not .def_197))) (let ((.def_199 (and act_make_treatment@1 act_load_at_depot@1 .def_194))) (let ((.def_200 (not .def_199))) (let ((.def_201 (and act_make_treatment@1 act_move@1 .def_194))) (let ((.def_202 (not .def_201))) (let ((.def_203 (and act_make_treatment@1 act_load@1 .def_194))) (let ((.def_204 (not .def_203))) (let ((.def_205 (and act_load@1 act_make_treatment@1 .def_104))) (let ((.def_206 (not .def_205))) (let ((.def_207 (and act_load_at_depot@1 act_load@1 .def_194))) (let ((.def_208 (not .def_207))) (let ((.def_209 (and act_unload_at_depot@1 act_move@1 .def_194))) (let ((.def_210 (not .def_209))) (let ((.def_211 (and act_make_treatment@1 act_unload_at_depot@1 .def_194))) (let ((.def_212 (not .def_211))) (let ((.def_213 (+ t@1 dur_make_treatment@1))) (let ((.def_214 (= .def_213 t@1))) (let ((.def_215 (and act_make_treatment@1 act_load@1 .def_214))) (let ((.def_216 (not .def_215))) (let ((.def_217 (and act_load@1 act_move@1 .def_194))) (let ((.def_218 (not .def_217))) (let ((.def_219 (and act_unload_at_depot@1 act_load_at_depot@1 .def_194))) (let ((.def_220 (not .def_219))) (let ((.def_221 (and .def_220 .def_218 .def_216 .def_212 .def_210 .def_208 .def_206 .def_204 .def_202 .def_200 .def_198 .def_196))) (let ((.def_222 (<= 0.0 t@1))) (let ((.def_223 (and .def_14 .def_8 .def_16))) (let ((.def_224 (ite .def_223 fluent_ready_plt0_p1_t0@1 fluent_ready_plt0_p0_t0@1))) (let ((.def_225 (and .def_14 .def_9 .def_15))) (let ((.def_226 (ite .def_225 fluent_ready_plt0_p0_t1@1 .def_224))) (let ((.def_227 (and .def_14 .def_8 .def_15))) (let ((.def_228 (ite .def_227 fluent_ready_plt0_p1_t1@1 .def_226))) (let ((.def_229 (= .def_228 true))) (let ((.def_230 (=> true .def_229))) (let ((.def_231 (and .def_104 .def_230))) (let ((.def_232 (= fluent_robot_free_r0@1 true))) (let ((.def_233 (=> true .def_232))) (let ((.def_234 (and .def_14 .def_8))) (let ((.def_235 (ite .def_234 fluent_pallet_at_plt0_p1@1 fluent_pallet_at_plt0_p0@1))) (let ((.def_236 (= .def_235 true))) (let ((.def_237 (=> true .def_236))) (let ((.def_238 (= fluent_robot_has_r0_plt0@1 false))) (let ((.def_239 (=> true .def_238))) (let ((.def_240 (ite .def_8 fluent_position_free_p1@1 fluent_position_free_p0@1))) (let ((.def_241 (= .def_240 false))) (let ((.def_242 (=> true .def_241))) (let ((.def_243 (and .def_194 .def_242 .def_239 .def_237 .def_233))) (let ((.def_244 (ite .def_8 fluent_position_free_p1@0 fluent_position_free_p0@0))) (let ((.def_245 (and .def_14 .def_15))) (let ((.def_246 (ite .def_245 fluent_treated_plt0_t1@0 fluent_treated_plt0_t0@0))) (let ((.def_247 (and .def_246 .def_244))) (let ((.def_248 (<= .def_213 t@1))) (let ((.def_249 (< (- 1.0) .def_213))) (let ((.def_250 (and .def_249 .def_248))) (let ((.def_251 (=> .def_250 .def_247))) (let ((.def_252 (not .def_246))) (let ((.def_253 (and .def_13 .def_8))) (let ((.def_254 (ite .def_253 fluent_robot_at_r0_p1@0 fluent_robot_at_r0_p0@0))) (let ((.def_255 (and .def_8 .def_16))) (let ((.def_256 (ite .def_255 false true))) (let ((.def_257 (and .def_9 .def_15))) (let ((.def_258 (ite .def_257 true .def_256))) (let ((.def_259 (and .def_8 .def_15))) (let ((.def_260 (ite .def_259 false .def_258))) (let ((.def_261 (and .def_260 .def_244 .def_254 fluent_robot_has_r0_plt0@0 .def_252))) (let ((.def_262 (<= t@1 t@1))) (let ((.def_263 (< (- 1.0) t@1))) (let ((.def_264 (and .def_263 .def_262))) (let ((.def_265 (=> .def_264 .def_261))) (let ((.def_266 (<= dur_make_treatment@1 20.0))) (let ((.def_267 (<= 20.0 dur_make_treatment@1))) (let ((.def_268 (and .def_267 .def_266))) (let ((.def_269 (and .def_268 .def_248 .def_265 .def_251 .def_243 .def_231))) (let ((.def_270 (=> act_make_treatment@1 .def_269))) (let ((.def_271 (and .def_25 .def_27))) (let ((.def_272 (ite .def_271 fluent_pallet_at_plt0_p1@1 fluent_pallet_at_plt0_p0@1))) (let ((.def_273 (= .def_272 true))) (let ((.def_274 (=> true .def_273))) (let ((.def_275 (and .def_26 .def_27))) (let ((.def_276 (ite .def_275 fluent_robot_at_r0_p1@0 fluent_robot_at_r0_p0@0))) (let ((.def_277 (ite .def_27 true false))) (let ((.def_278 (and .def_277 .def_276 fluent_robot_has_r0_plt0@0 .def_274 .def_233 .def_239))) (let ((.def_279 (=> act_unload_at_depot@1 .def_278))) (let ((.def_280 (and .def_30 .def_32))) (let ((.def_281 (ite .def_280 fluent_pallet_at_plt0_p1@1 fluent_pallet_at_plt0_p0@1))) (let ((.def_282 (= .def_281 false))) (let ((.def_283 (=> true .def_282))) (let ((.def_284 (= fluent_robot_has_r0_plt0@1 true))) (let ((.def_285 (=> true .def_284))) (let ((.def_286 (= fluent_robot_free_r0@1 false))) (let ((.def_287 (=> true .def_286))) (let ((.def_288 (ite .def_280 fluent_pallet_at_plt0_p1@0 fluent_pallet_at_plt0_p0@0))) (let ((.def_289 (and .def_31 .def_32))) (let ((.def_290 (ite .def_289 fluent_robot_at_r0_p1@0 fluent_robot_at_r0_p0@0))) (let ((.def_291 (ite .def_32 true false))) (let ((.def_292 (and .def_291 .def_290 fluent_robot_free_r0@0 .def_288 .def_287 .def_285 .def_283))) (let ((.def_293 (=> act_load_at_depot@1 .def_292))) (let ((.def_294 (ite .def_2 fluent_position_free_p1@1 fluent_position_free_p0@1))) (let ((.def_295 (= .def_294 true))) (let ((.def_296 (=> true .def_295))) (let ((.def_297 (and .def_1 .def_5))) (let ((.def_298 (ite .def_297 fluent_treated_plt0_t1@1 fluent_treated_plt0_t0@1))) (let ((.def_299 (= .def_298 true))) (let ((.def_300 (=> true .def_299))) (let ((.def_301 (and .def_1 .def_2))) (let ((.def_302 (ite .def_301 fluent_pallet_at_plt0_p1@1 fluent_pallet_at_plt0_p0@1))) (let ((.def_303 (= .def_302 false))) (let ((.def_304 (=> true .def_303))) (let ((.def_305 (and .def_1 .def_2 .def_6))) (let ((.def_306 (ite .def_305 fluent_ready_plt0_p1_t0@1 fluent_ready_plt0_p0_t0@1))) (let ((.def_307 (and .def_1 .def_3 .def_5))) (let ((.def_308 (ite .def_307 fluent_ready_plt0_p0_t1@1 .def_306))) (let ((.def_309 (and .def_1 .def_2 .def_5))) (let ((.def_310 (ite .def_309 fluent_ready_plt0_p1_t1@1 .def_308))) (let ((.def_311 (= .def_310 false))) (let ((.def_312 (=> true .def_311))) (let ((.def_313 (ite .def_301 fluent_pallet_at_plt0_p1@0 fluent_pallet_at_plt0_p0@0))) (let ((.def_314 (and .def_0 .def_2))) (let ((.def_315 (ite .def_314 fluent_robot_at_r0_p1@0 fluent_robot_at_r0_p0@0))) (let ((.def_316 (ite .def_305 fluent_ready_plt0_p1_t0@0 fluent_ready_plt0_p0_t0@0))) (let ((.def_317 (ite .def_307 fluent_ready_plt0_p0_t1@0 .def_316))) (let ((.def_318 (ite .def_309 fluent_ready_plt0_p1_t1@0 .def_317))) (let ((.def_319 (and .def_318 .def_315 fluent_robot_free_r0@0 .def_313 .def_287 .def_312 .def_304 .def_285 .def_300 .def_296))) (let ((.def_320 (=> act_load@1 .def_319))) (let ((.def_321 (and .def_19 .def_23))) (let ((.def_322 (ite .def_321 1.0 0.0))) (let ((.def_323 (and .def_20 .def_22))) (let ((.def_324 (ite .def_323 1.0 .def_322))) (let ((.def_325 (and .def_19 .def_22))) (let ((.def_326 (ite .def_325 0.0 .def_324))) (let ((.def_327 (- fluent_battery_level_r0@0 .def_326))) (let ((.def_328 (= fluent_battery_level_r0@1 .def_327))) (let ((.def_329 (=> true .def_328))) (let ((.def_330 (and .def_18 .def_19))) (let ((.def_331 (ite .def_330 fluent_robot_at_r0_p1@1 fluent_robot_at_r0_p0@1))) (let ((.def_332 (= .def_331 false))) (let ((.def_333 (=> true .def_332))) (let ((.def_334 (and .def_18 .def_22))) (let ((.def_335 (ite .def_334 fluent_robot_at_r0_p1@1 fluent_robot_at_r0_p0@1))) (let ((.def_336 (= .def_335 true))) (let ((.def_337 (=> true .def_336))) (let ((.def_338 (<= .def_326 fluent_battery_level_r0@0))) (let ((.def_339 (ite .def_330 fluent_robot_at_r0_p1@0 fluent_robot_at_r0_p0@0))) (let ((.def_340 (= parameter_move_frompos@1 parameter_move_topos@1))) (let ((.def_341 (not .def_340))) (let ((.def_342 (and .def_341 .def_339 .def_338 .def_337 .def_333 .def_329))) (let ((.def_343 (=> act_move@1 .def_342))) (let ((.def_344 (<= 0.0 fluent_battery_level_r0@0))) (let ((.def_345 (<= fluent_battery_level_r0@0 100.0))) (let ((.def_346 (= false false))) (let ((.def_347 (= fluent_pallet_at_plt0_p0@0 false))) (let ((.def_348 (= fluent_treated_plt0_t1@0 false))) (let ((.def_349 (= fluent_treated_plt0_t0@0 false))) (let ((.def_350 (= fluent_ready_plt0_p1_t1@0 false))) (let ((.def_351 (= fluent_ready_plt0_p0_t1@0 false))) (let ((.def_352 (= fluent_ready_plt0_p1_t0@0 false))) (let ((.def_353 (= fluent_ready_plt0_p0_t0@0 false))) (let ((.def_354 (= fluent_robot_has_r0_plt0@0 false))) (let ((.def_355 (= fluent_robot_at_r0_p0@0 false))) (let ((.def_356 (= true true))) (let ((.def_357 (= fluent_position_free_p1@0 true))) (let ((.def_358 (= fluent_position_free_p0@0 true))) (let ((.def_359 (= 0.0 0.0))) (let ((.def_360 (= 1.0 1.0))) (let ((.def_361 (= fluent_battery_level_r0@0 4.0))) (let ((.def_362 (= fluent_pallet_at_plt0_p1@0 true))) (let ((.def_363 (= fluent_robot_free_r0@0 true))) (let ((.def_364 (= fluent_robot_at_r0_p1@0 true))) (let ((.def_365 (and .def_364 .def_363 .def_362 .def_361 .def_359 .def_360 .def_360 .def_359 .def_356 .def_358 .def_357 .def_356 .def_356 .def_355 .def_354 .def_353 .def_352 .def_351 .def_350 .def_349 .def_348 .def_347 .def_346 .def_346 .def_346 .def_345 .def_344))) (let ((.def_366 (and .def_365 .def_343 .def_320 .def_293 .def_279 .def_270 .def_222 .def_221 true .def_193 .def_34 .def_31 .def_30 .def_29 .def_26 .def_25 .def_24 .def_21 .def_18 .def_17 .def_14 .def_13 .def_12 .def_11 .def_10 .def_7 .def_4 .def_1 .def_0 true))) .def_366))))))))))))))))))))))))))))))))))))))))))))))))))))))))))))))))))))))))))))))))))))))))))))))))))))))))))))))))))))))))))))))))))))))))))))))))))))))))))))))))))))))))))))))))))))))))))))))))))))))))))))))))))))))))))))))))))))))))))))))))))))))))))))))))))))))))))))))))))))))))))))))))))))))))))))))))))))))))))))))))))))))))))))))))))))))))))))))))))))))))))))))))
(check-sat)


